
******************************************************************************
This program contains Ipopt, a library for large-scale nonlinear optimization.
 Ipopt is released as open source code under the Eclipse Public License (EPL).
         For more information visit https://github.com/coin-or/Ipopt
******************************************************************************

This is Ipopt version 3.14.19, running with linear solver MUMPS 5.8.1.

Number of nonzeros in equality constraint Jacobian...:     4389
Number of nonzeros in inequality constraint Jacobian.:        0
Number of nonzeros in Lagrangian Hessian.............:     1050

Total number of variables............................:     1287
                     variables with only lower bounds:        0
                variables with lower and upper bounds:      457
                     variables with only upper bounds:        0
Total number of equality constraints.................:     1274
Total number of inequality constraints...............:        0
        inequality constraints with only lower bounds:        0
   inequality constraints with lower and upper bounds:        0
        inequality constraints with only upper bounds:        0

iter    objective    inf_pr   inf_du lg(mu)  ||d||  lg(rg) alpha_du alpha_pr  ls
   0  9.8508388e+00 9.90e+01 5.61e-04  -1.0 0.00e+00    -  0.00e+00 0.00e+00   0
   1  9.8530829e+00 5.87e+01 3.19e+01  -1.0 9.87e+01    -  1.23e-02 4.07e-01h  1
   2  9.8533623e+00 4.54e+01 2.48e+01  -1.0 5.82e+01    -  6.97e-01 2.26e-01h  1
   3  9.8556103e+00 1.82e-02 1.27e+01  -1.0 4.40e+01    -  5.27e-01 1.00e+00h  1
   4  9.8583871e+00 1.69e-03 7.39e+00  -1.0 1.38e+00    -  6.70e-01 1.00e+00f  1
   5  9.8660572e+00 2.15e-03 8.33e-01  -1.0 3.56e+00    -  9.92e-01 9.00e-01f  1
   6  9.8639591e+00 7.95e-02 3.85e-04  -1.7 5.29e-01    -  1.00e+00 1.00e+00h  1
   7  9.8633641e+00 1.03e-01 1.39e-04  -2.5 7.18e-01    -  1.00e+00 1.00e+00h  1
   8  9.8631397e+00 4.48e-04 1.35e-06  -2.5 1.35e-01    -  1.00e+00 1.00e+00h  1
   9  9.8628187e+00 3.10e-03 1.39e-01  -3.8 1.42e-01    -  8.00e-01 1.00e+00h  1
iter    objective    inf_pr   inf_du lg(mu)  ||d||  lg(rg) alpha_du alpha_pr  ls
  10  9.8511382e+00 4.35e-03 6.07e-03  -3.8 4.91e+00    -  1.00e+00 1.00e+00h  1
  11  9.8513514e+00 3.93e-06 7.30e-06  -3.8 1.42e-01    -  1.00e+00 1.00e+00h  1
  12  9.8480757e+00 4.00e-04 5.41e-04  -5.7 1.57e+00    -  7.90e-01 1.00e+00h  1
  13  9.8479062e+00 1.39e-06 1.65e-06  -5.7 1.08e-01    -  1.00e+00 1.00e+00h  1
  14  9.8478593e+00 8.60e-08 1.15e-07  -8.6 2.35e-02    -  9.98e-01 1.00e+00h  1
  15  9.8478593e+00 5.17e-14 6.03e-14  -8.6 2.11e-05    -  1.00e+00 1.00e+00h  1

Number of Iterations....: 15

                                   (scaled)                 (unscaled)
Objective...............:   9.8478593010100859e+00    9.8478593010100859e+00
Dual infeasibility......:   6.0340621388377258e-14    6.0340621388377258e-14
Constraint violation....:   5.1736392947532295e-14    5.1736392947532295e-14
Variable bound violation:   0.0000000000000000e+00    0.0000000000000000e+00
Complementarity.........:   2.5286132050909420e-09    2.5286132050909420e-09
Overall NLP error.......:   2.5286132050909420e-09    2.5286132050909420e-09


Number of objective function evaluations             = 16
Number of objective gradient evaluations             = 16
Number of equality constraint evaluations            = 16
Number of inequality constraint evaluations          = 0
Number of equality constraint Jacobian evaluations   = 16
Number of inequality constraint Jacobian evaluations = 0
Number of Lagrangian Hessian evaluations             = 15
Total seconds in IPOPT                               = 0.164

EXIT: Optimal Solution Found.
